# Solution for model GasLib-40
# Objective value = 1.0447990771243315e+01
loadshed[innode_1] 0
loadshed[innode_2] 0
loadshed[innode_3] 0
loadshed[innode_4] 0
loadshed[innode_5] 0
loadshed[innode_6] 0
loadshed[innode_7] 0
loadshed[innode_8] 0
loadshed[source_1] -2.9253132339242627e-01
loadshed[source_2] 5.8946991580046348e-02
loadshed[source_3] 2.9967309399353270e-01
loadshed[sink_1] 0
loadshed[sink_2] 0
loadshed[sink_3] 0
loadshed[sink_4] 0
loadshed[sink_5] 0
loadshed[sink_6] 0
loadshed[sink_7] 0
loadshed[sink_8] 0
loadshed[sink_9] 0
loadshed[sink_10] 0
loadshed[sink_11] 0
loadshed[sink_12] 6.3885803441997335e-01
loadshed[sink_13] 0
loadshed[sink_14] 0
loadshed[sink_15] 0
loadshed[sink_16] 0
loadshed[sink_17] 0
loadshed[sink_18] 0
loadshed[sink_19] 0
loadshed[sink_20] 0
loadshed[sink_21] 0
loadshed[sink_22] 0
loadshed[sink_23] 0
loadshed[sink_24] 0
loadshed[sink_25] 0
loadshed[sink_26] 0
loadshed[sink_27] 0
loadshed[sink_28] 0
loadshed[sink_29] 0
flow[source_1,sink_3] 2.0433663595158737e+02
flow[innode_1,sink_16] 1.6354166666666970e+01
flow[innode_6,sink_13] 3.7642915608658924e+00
flow[sink_13,sink_14] -1.2589875105800775e+01
flow[sink_14,sink_10] -2.8944041772467443e+01
flow[sink_25,sink_26] 1.7164274131400344e+02
flow[sink_26,sink_9] 1.2190145926987580e+02
flow[sink_9,sink_18] 1.0554729260320913e+02
flow[sink_26,sink_4] 3.3387115377460994e+01
flow[sink_4,sink_20] -1.7198276994458286e+01
flow[sink_18,sink_6] 8.9193125936542458e+01
flow[sink_25,innode_8] -1.7162830261825098e+02
flow[sink_6,sink_7] 4.0130625936541946e+01
flow[sink_6,sink_22] 3.2708333333333641e+01
flow[sink_7,sink_24] 3.8614509228756688e+01
flow[sink_22,sink_1] 1.6354166666666970e+01
flow[sink_24,sink_21] 2.2260342562090020e+01
flow[sink_21,sink_12] 5.9061758954233534e+00
flow[sink_7,sink_5] -1.4838049958881030e+01
flow[sink_5,sink_17] -3.1192216625546962e+01
flow[sink_17,sink_4] -3.4231225705252612e+01
flow[sink_17,sink_8] -1.3315157586960972e+01
flow[sink_3,sink_23] 16.3541666666697
flow[sink_8,sink_20] -2.9669324253627639e+01
flow[sink_25,sink_20] 6.3221767914752377e+01
flow[sink_25,sink_15] -8.3354664838038687e+01
flow[sink_15,sink_29] -9.9708831504705358e+01
flow[sink_29,sink_28] 1.6354166666667879e+01
flow[sink_29,sink_2] 1.6354166666684250e+01
flow[sink_2,sink_15] 0
flow[sink_29,innode_7] -1.4877133150472392e+02
flow[innode_4,sink_19] 9.4360708439134370e+01
flow[sink_19,innode_3] 3.8066863119530446e+01
flow[innode_4,innode_5] 1.6354166666679703e+01
flow[sink_27,innode_5] -1.6354166666679703e+01
flow[sink_27,sink_19] 0
flow[sink_10,sink_11] 3.2708333333333641e+01
flow[sink_10,innode_2] -39.9396786529373
flow[sink_10,innode_3] -3.8066863119530446e+01
flow[innode_6,sink_25] -3.7642915608658924e+00
flow[sink_11,innode_1] 1.6354166666666970e+01
flow[sink_19,innode_2] 39.9396786529373
flow[source_3,innode_4] 1.1071487510581407e+02
flow[source_2,innode_7] 1.4877133150472392e+02
flow[sink_3,innode_8] 1.7162830261825098e+02
pressure[innode_1] 7.4927778987988589e+01
pressure[innode_2] 7.7190457268675218e+01
pressure[innode_3] 7.7106162510901640e+01
pressure[innode_4] 81.01325
pressure[innode_5] 8.1002000741808786e+01
pressure[innode_6] 73.7086890177963
pressure[innode_7] 81.01325
pressure[innode_8] 8.0330230685438124e+01
pressure[source_1] 81.01325
pressure[source_2] 81.01325
pressure[source_3] 81.01325
pressure[sink_1] 4.6022059323788262e+01
pressure[sink_2] 7.6619930194806557e+01
pressure[sink_3] 8.0330230685438124e+01
pressure[sink_4] 5.7375067288440604e+01
pressure[sink_5] 5.3743268041177892e+01
pressure[sink_6] 4.8123136934175633e+01
pressure[sink_7] 4.7572239097001344e+01
pressure[sink_8] 5.6569278203648366e+01
pressure[sink_9] 5.4323874590935255e+01
pressure[sink_10] 7.5079480295592134e+01
pressure[sink_11] 7.4927778987988589e+01
pressure[sink_12] 1.0132499999999998e+00
pressure[sink_13] 7.3687937107492814e+01
pressure[sink_14] 7.3710467761414890e+01
pressure[sink_15] 7.4113040364866222e+01
pressure[sink_16] 7.3906129153170909e+01
pressure[sink_17] 5.6066862715963545e+01
pressure[sink_18] 5.0504858959516618e+01
pressure[sink_19] 7.7190457268675218e+01
pressure[sink_20] 5.8636812856377610e+01
pressure[sink_21] 3.1149906298575
pressure[sink_22] 4.7085828466143269e+01
pressure[sink_23] 8.0165512673778323e+01
pressure[sink_24] 3.3615032414077843e+00
pressure[sink_25] 73.7086890177963
pressure[sink_26] 6.1619991547243067e+01
pressure[sink_27] 8.0866291377726043e+01
pressure[sink_28] 7.6738917419653035e+01
pressure[sink_29] 7.7034199693270210e+01
interdiction[source_1,sink_3] 0
interdiction[innode_1,sink_16] 0
interdiction[innode_6,sink_13] 0
interdiction[sink_13,sink_14] 0
interdiction[sink_14,sink_10] 0
interdiction[sink_25,sink_26] 0
interdiction[sink_26,sink_9] 0
interdiction[sink_9,sink_18] 0
interdiction[sink_26,sink_4] 0
interdiction[sink_4,sink_20] 0
interdiction[sink_18,sink_6] 0
interdiction[sink_25,innode_8] 0
interdiction[sink_6,sink_7] 0
interdiction[sink_6,sink_22] 0
interdiction[sink_7,sink_24] 0
interdiction[sink_22,sink_1] 0
interdiction[sink_24,sink_21] 0
interdiction[sink_21,sink_12] 0
interdiction[sink_7,sink_5] 0
interdiction[sink_5,sink_17] 0
interdiction[sink_17,sink_4] 0
interdiction[sink_17,sink_8] 0
interdiction[sink_3,sink_23] 0
interdiction[sink_8,sink_20] 0
interdiction[sink_25,sink_20] 0
interdiction[sink_25,sink_15] 0
interdiction[sink_15,sink_29] 0
interdiction[sink_29,sink_28] 0
interdiction[sink_29,sink_2] 0
interdiction[sink_2,sink_15] 1
interdiction[sink_29,innode_7] 0
interdiction[innode_4,sink_19] 0
interdiction[sink_19,innode_3] 0
interdiction[innode_4,innode_5] 0
interdiction[sink_27,innode_5] 0
interdiction[sink_27,sink_19] 1
interdiction[sink_10,sink_11] 0
interdiction[sink_10,innode_2] 0
interdiction[sink_10,innode_3] 0
interdiction[innode_6,sink_25] 0
interdiction[sink_11,innode_1] 0
interdiction[sink_19,innode_2] 0
interdiction[source_3,innode_4] 0
interdiction[source_2,innode_7] 0
interdiction[sink_3,innode_8] 0
WCcheckFlow[source_1,sink_3] 39
WCcheckFlow[innode_1,sink_16] 1
WCcheckFlow[innode_6,sink_13] 13
WCcheckFlow[sink_13,sink_14] 12
WCcheckFlow[sink_14,sink_10] 11
WCcheckFlow[sink_25,sink_26] 15
WCcheckFlow[sink_26,sink_9] 12
WCcheckFlow[sink_9,sink_18] 11
WCcheckFlow[sink_26,sink_4] 2
WCcheckFlow[sink_4,sink_20] 1
WCcheckFlow[sink_18,sink_6] 10
WCcheckFlow[sink_25,innode_8] -36
WCcheckFlow[sink_6,sink_7] 7
WCcheckFlow[sink_6,sink_22] 2
WCcheckFlow[sink_7,sink_24] 3
WCcheckFlow[sink_22,sink_1] 1
WCcheckFlow[sink_24,sink_21] 2
WCcheckFlow[sink_21,sink_12] 1
WCcheckFlow[sink_7,sink_5] 3
WCcheckFlow[sink_5,sink_17] 2
WCcheckFlow[sink_17,sink_4] 0
WCcheckFlow[sink_17,sink_8] 1
WCcheckFlow[sink_3,sink_23] 1
WCcheckFlow[sink_8,sink_20] 0
WCcheckFlow[sink_25,sink_20] 0
WCcheckFlow[sink_25,sink_15] 6
WCcheckFlow[sink_15,sink_29] 5
WCcheckFlow[sink_29,sink_28] 1
WCcheckFlow[sink_29,sink_2] 1
WCcheckFlow[sink_2,sink_15] 0
WCcheckFlow[sink_29,innode_7] 2
WCcheckFlow[innode_4,sink_19] -4
WCcheckFlow[sink_19,innode_3] -5
WCcheckFlow[innode_4,innode_5] 2
WCcheckFlow[sink_27,innode_5] -1
WCcheckFlow[sink_27,sink_19] 0
WCcheckFlow[sink_10,sink_11] 3
WCcheckFlow[sink_10,innode_2] 1
WCcheckFlow[sink_10,innode_3] 6
WCcheckFlow[innode_6,sink_25] -14
WCcheckFlow[sink_11,innode_1] 2
WCcheckFlow[sink_19,innode_2] 0
WCcheckFlow[source_3,innode_4] -1
WCcheckFlow[source_2,innode_7] -1
WCcheckFlow[sink_3,innode_8] 37
